14 5 
54 83 15 71 77 36 53 38 27 87 76 91 14 29
79  3 11 99 56 70 99 60  5 56  3 61 73 75
16 89 49 15 89 45 60 23 57 64  7  1 63 41
66 58 31 68 78 91 13 59 49 85 85  9 39 41
58 56 20 85 53 35 53 41 69 13 86 72  8 49
